Reading model...
...model read.
creating competitive generators file...
...competitive generators recorded.
Loading data...
.. real-time data read.
Compiling instance...
0.0
0.0
0.0
0.0
...instance created.
Creating Offer Mitigation (model will solve as dispatch if TRUE)...
NOTE: storage offers will not be mitigated
...storage offer mitigation file created
Converting model to MPEC...
...converted
NOTE: initial MIP solve with only storage competitive to get feasible solution
Solving...

Welcome to IBM(R) ILOG(R) CPLEX(R) Interactive Optimizer 12.9.0.0
  with Simplex, Mixed Integer & Barrier Optimizers
5725-A06 5725-A29 5724-Y48 5724-Y49 5724-Y54 5724-Y55 5655-Y21
Copyright IBM Corp. 1988, 2019.  All Rights Reserved.

Type 'help' for a list of available commands.
Type 'help' followed by a command name for more
information on commands.

CPLEX> Logfile 'cplex.log' closed.
Logfile 'C:\Users\llavin\Desktop\test826\logs\tmp8l22cnz9.cplex.log' open.
CPLEX> New value for parallel optimization mode: -1
CPLEX> New value for mixed integer optimality gap tolerance: 0.05
CPLEX> New value for feasibility tolerance: 1e-09
CPLEX> New value for emphasis for MIP optimization: 1
CPLEX> New value for deterministic time limit in ticks: 100000
CPLEX> Problem 'C:\Users\llavin\Desktop\test826\logs\tmpoca5b4pw.pyomo.lp' read.
Read time = 0.55 sec. (28.51 ticks)
CPLEX> Problem name         : C:\Users\llavin\Desktop\test826\logs\tmpoca5b4pw.pyomo.lp
Objective sense      : Maximize
Variables            :  107783  [Nneg: 1,  Box: 44058,  Free: 8928,
                                 Binary: 54796]
Objective nonzeros   :   17376
Linear constraints   :  246901  [Less: 82864,  Greater: 118424,  Equal: 45613]
  Nonzeros           :  618172
  RHS nonzeros       :  134878

Variables            : Min LB: -5000.000        Max UB: 1000000.       
Objective nonzeros   : Min   : 0.008333333      Max   : 208.3333       
Linear constraints   :
  Nonzeros           : Min   : 0.008333333      Max   : 1000000.       
  RHS nonzeros       : Min   : 0.008333333      Max   : 1000000.       
CPLEX> CPXPARAM_Parallel                                -1
CPXPARAM_Emphasis_MIP                            1
CPXPARAM_Simplex_Tolerances_Feasibility          1.0000000000000001e-09
CPXPARAM_DetTimeLimit                            100000
CPXPARAM_MIP_Tolerances_MIPGap                   0.050000000000000003
Tried aggregator 3 times.
MIP Presolve eliminated 182780 rows and 42451 columns.
MIP Presolve added 5999 rows and 0 columns.
MIP Presolve modified 49376 coefficients.
Aggregator did 25715 substitutions.
Reduced MIP has 44405 rows, 37985 columns, and 127543 nonzeros.
Reduced MIP has 14873 binaries, 0 generals, 0 SOSs, and 0 indicators.
Presolve time = 0.59 sec. (340.13 ticks)
Probing fixed 894 vars, tightened 12796 bounds.
Probing time = 0.36 sec. (15.41 ticks)
Tried aggregator 2 times.
MIP Presolve eliminated 1982 rows and 1790 columns.
MIP Presolve modified 5432 coefficients.
Aggregator did 99 substitutions.
Reduced MIP has 42324 rows, 36096 columns, and 121492 nonzeros.
Reduced MIP has 13978 binaries, 0 generals, 0 SOSs, and 0 indicators.
Presolve time = 0.22 sec. (202.87 ticks)
Probing fixed 1 vars, tightened 461 bounds.
Probing time = 0.45 sec. (16.70 ticks)
Clique table members: 77145.
MIP emphasis: integer feasibility.
MIP search method: dynamic search.
Parallel mode: opportunistic, using up to 32 threads.
Root relaxation solution time = 0.86 sec. (1421.80 ticks)

        Nodes                                         Cuts/
   Node  Left     Objective  IInf  Best Integer    Best Bound    ItCnt     Gap

      0     0        0.0000   274                      0.0000     6898         
*     0+    0                            0.0000        0.0000             0.00%

Root node processing (before b&c):
  Real time             =    3.22 sec. (2436.73 ticks)
Parallel b&c, 32 threads:
  Real time             =    0.00 sec. (0.00 ticks)
  Sync time (average)   =    0.00 sec.
  Wait time (average)   =    0.00 sec.
                          ------------
Total (root+branch&cut) =    3.22 sec. (2436.73 ticks)

Solution pool: 1 solution saved.

MIP - Integer optimal, tolerance (0.05/1e-06):  Objective =  3.4556251194e-09
Current MIP best bound =  3.8459262441e-09 (gap = 3.90301e-10, 0.00%)
Solution time =    3.25 sec.  Iterations = 6898  Nodes = 0 (1)
Deterministic time = 2437.04 ticks  (749.86 ticks/sec)

CPLEX> Incumbent solution written to file 'C:\Users\llavin\Desktop\test826\logs\tmp3q2inqk7.cplex.sol'.
CPLEX> NOTE: no warmstart specified for MIP iteration, default behavior is true
NOTE: resolving with all competitive generators using storage-only solution to warmstart
Solving...

Welcome to IBM(R) ILOG(R) CPLEX(R) Interactive Optimizer 12.9.0.0
  with Simplex, Mixed Integer & Barrier Optimizers
5725-A06 5725-A29 5724-Y48 5724-Y49 5724-Y54 5724-Y55 5655-Y21
Copyright IBM Corp. 1988, 2019.  All Rights Reserved.

Type 'help' for a list of available commands.
Type 'help' followed by a command name for more
information on commands.

CPLEX> Logfile 'cplex.log' closed.
Logfile 'C:\Users\llavin\Desktop\test826\logs\tmppb4nqhl7.cplex.log' open.
CPLEX> New value for parallel optimization mode: -1
CPLEX> New value for mixed integer optimality gap tolerance: 0.05
CPLEX> New value for feasibility tolerance: 1e-09
CPLEX> New value for emphasis for MIP optimization: 1
CPLEX> New value for deterministic time limit in ticks: 100000
CPLEX> Problem 'C:\Users\llavin\Desktop\test826\logs\tmp_r8_1xe_.pyomo.lp' read.
Read time = 0.53 sec. (28.56 ticks)
CPLEX> MIP start file 'C:\Users\llavin\Desktop\test826\logs\tmpfagnq0is.cplex.mst' read.
CPLEX> Problem name         : C:\Users\llavin\Desktop\test826\logs\tmp_r8_1xe_.pyomo.lp
Objective sense      : Maximize
Variables            :  109223  [Nneg: 1,  Box: 45498,  Free: 8928,
                                 Binary: 54796]
Objective nonzeros   :   18768
Linear constraints   :  246901  [Less: 82864,  Greater: 118424,  Equal: 45613]
  Nonzeros           :  618172
  RHS nonzeros       :  134878

Variables            : Min LB: -5000.000        Max UB: 1000000.       
Objective nonzeros   : Min   : 0.008333333      Max   : 208.3333       
Linear constraints   :
  Nonzeros           : Min   : 0.008333333      Max   : 1000000.       
  RHS nonzeros       : Min   : 0.008333333      Max   : 1000000.       
CPLEX> CPXPARAM_Parallel                                -1
CPXPARAM_Emphasis_MIP                            1
CPXPARAM_Simplex_Tolerances_Feasibility          1.0000000000000001e-09
CPXPARAM_DetTimeLimit                            100000
CPXPARAM_MIP_Tolerances_MIPGap                   0.050000000000000003
Warning:  No solution found from 1 MIP starts.
Retaining values of one MIP start for possible repair.
Tried aggregator 3 times.
MIP Presolve eliminated 182780 rows and 43891 columns.
MIP Presolve added 5999 rows and 0 columns.
MIP Presolve modified 49376 coefficients.
Aggregator did 25715 substitutions.
Reduced MIP has 44405 rows, 37985 columns, and 127543 nonzeros.
Reduced MIP has 14873 binaries, 0 generals, 0 SOSs, and 0 indicators.
Presolve time = 0.61 sec. (340.83 ticks)
Probing fixed 894 vars, tightened 12796 bounds.
Probing time = 0.38 sec. (15.41 ticks)
Tried aggregator 2 times.
MIP Presolve eliminated 1982 rows and 1790 columns.
MIP Presolve modified 5432 coefficients.
Aggregator did 99 substitutions.
Reduced MIP has 42324 rows, 36096 columns, and 121492 nonzeros.
Reduced MIP has 13978 binaries, 0 generals, 0 SOSs, and 0 indicators.
Presolve time = 0.22 sec. (203.01 ticks)
Probing fixed 1 vars, tightened 461 bounds.
Probing time = 0.44 sec. (16.70 ticks)
Clique table members: 77145.
MIP emphasis: integer feasibility.
MIP search method: dynamic search.
Parallel mode: opportunistic, using up to 32 threads.
Root relaxation solution time = 1.11 sec. (1699.29 ticks)

        Nodes                                         Cuts/
   Node  Left     Objective  IInf  Best Integer    Best Bound    ItCnt     Gap

      0     0    19758.6158   380                  19758.6158    10810         
      0     0    19758.6158    81               Flowcuts: 112    10833         
      0     0    19758.6158    85                   Cuts: 104    10862         
      0     0    19758.6158    83                    Cuts: 90    10883         
Repair heuristic found nothing.
      0     7    19753.5928    76                     Cuts: 3    10896         
Elapsed time = 8.97 sec. (4331.56 ticks, tree = 0.02 MB, solutions = 0)
    423   431    19741.7233    65                  19757.4771    13370         
    890   619    19737.1908    36                  19757.4771    14924         
   1295  1066    19295.9283    45                  19757.4771    21251         
   1683  1346    19729.6599    39                  19757.4771    24611         
*  2024  1539      integral     0    19521.7044    19757.4771    26957    1.21%
   2126  1728    17182.5007    41    19521.7044    19757.4771    29560    1.21%
   2472  2017    16291.4359    35    19521.7044    19757.4771    37289    1.21%
   2719  2187     8250.9513    34    19521.7044    19757.4771    43143    1.21%

Clique cuts applied:  1
Cover cuts applied:  5
Implied bound cuts applied:  2
Flow cuts applied:  148

Root node processing (before b&c):
  Real time             =    6.05 sec. (4273.20 ticks)
Parallel b&c, 32 threads:
  Real time             =   12.17 sec. (1836.40 ticks)
  Sync time (average)   =    1.57 sec.
  Wait time (average)   =    0.00 sec.
                          ------------
Total (root+branch&cut) =   18.22 sec. (6109.60 ticks)

Solution pool: 1 solution saved.

MIP - Integer optimal, tolerance (0.05/1e-06):  Objective =  1.9521704409e+04
Current MIP best bound =  1.9757477067e+04 (gap = 235.773, 1.21%)
Solution time =   18.23 sec.  Iterations = 54093  Nodes = 2754 (1439)
Deterministic time = 6109.91 ticks  (335.08 ticks/sec)

CPLEX> Incumbent solution written to file 'C:\Users\llavin\Desktop\test826\logs\tmp5s_fsbts.cplex.sol'.
CPLEX> Exporting results... 
